DATASET = "thpack6";
INSTANCE = "020";

WIDTH = 233;
HEIGHT = 220;
LENGTH = 587;

NO_OF_SHAPES = 15;
size = [|
  97,77,66 |
  81,69,69 |
  109,53,24 |
  98,33,20 |
  86,56,34 |
  76,50,35 |
  109,42,22 |
  82,69,42 |
  58,43,31 |
  99,80,48 |
  89,68,39 |
  74,53,40 |
  97,43,32 |
  112,70,51 |
  73,29,20 |
|];

verticality = [|
  1,1,1 |
  1,1,1 |
  0,0,1 |
  0,1,1 |
  0,1,1 |
  0,1,1 |
  0,1,1 |
  1,1,1 |
  1,1,1 |
  0,1,1 |
  0,1,1 |
  1,1,1 |
  0,1,1 |
  0,1,1 |
  0,1,1 |
|];

box_count = [
  6,
  13,
  12,
  10,
  6,
  10,
  10,
  7,
  9,
  11,
  11,
  5,
  10,
  12,
  8,
];
